NAME : cgl_51.12498.tour
COMMENT : Length = 12498
COMMENT : Found by LKH-3 [Keld Helsgaun] Thu Jun 26 21:26:49 2025
TYPE : TOUR
DIMENSION : 52
TOUR_SECTION
32
33
31
34
35
36
39
38
37
40
43
41
42
44
46
47
45
48
49
50
51
52
10
11
12
4
3
5
8
6
7
9
1
2
13
14
15
16
17
19
18
20
21
24
23
22
27
25
26
30
29
28
-1
EOF
